(set-option :produce-models true)
(set-logic QF_LIA)
(declare-fun x () Int)
(declare-fun y () Int)
(assert (= (+ x y) 9))
(assert (= (+ (* 2 x) (* 3 y)) 22))
(check-sat)
(get-value (x))
(get-value ((- x y) (+ 2 y)))